NAME : portcgen-28-26
COMMENT : portcgen N=28, seed=26
TYPE : TSP
DIMENSION : 28
EDGE_WEIGHT_TYPE : EUC_2D
NODE_COORD_SECTION
1 -156836 -51101
2 136027 -206195
3 -7713 -75291
4 -200432 312305
5 -161019 77941
6 158556 6148
7 -83285 19522
8 -312044 -93850
9 58806 206112
10 -44093 -319437
11 -256415 287899
12 -137918 -59764
13 -104011 205270
14 -146487 -249068
15 251739 -497913
16 37646 -188725
17 260865 177245
18 -161508 -288625
19 124465 34034
20 263254 -80070
21 -416959 200621
22 -107021 168294
23 336689 -475224
24 376486 206694
25 -408092 -275974
26 52093 353194
27 223919 -204480
28 -343706 -229047
